$rem
   JOBTYPE Opt
   EXCHANGE RHF
   BASIS 6-31G(d)
   GUI=2
$end

$comment
AC6
$end

$molecule
   -1 1
   C        3.08600       -1.25700        2.49300
   O        4.23800       -1.12900        1.99000
   O        2.93300       -1.80100        3.62700
   C        1.85100       -0.57200        1.91800
   C        1.89400       -1.81400       -0.17600
   O        1.05300       -0.03700        2.72000
   C        1.67700       -0.42400        0.38800
   O        0.44900        0.07100       -0.02200
   C        2.80000        0.56400        0.00700
   H        3.78000        0.07900       -0.07000
   H        2.59300        0.94600       -1.07400
   H        2.83700        1.51600        0.68600
   H        2.00100       -1.71400       -1.29200
   H        2.81700       -2.22100        0.26900
   H        0.96300       -2.42800       -0.08100
$end

