$rem
   JOBTYPE Opt
   EXCHANGE B3LYP
   BASIS 6-31+G(d)
   GUI=2
   pdb_print 2
$end

$comment
frametest
$end

$opt
CONSTRAINT
stre atom1 atom2 distanceyouwant
stre atom1 atom3 distanceyouwant
ENDCONSTRAINT
$end

$molecule
   2 1
   C        3.45700       -1.30300        2.63900
   O        4.58500       -1.56800        2.15200
   O        3.15600       -1.66900        3.83800
   C        2.43100       -0.61100        1.76000
   O        1.32300       -0.39100        2.44700
   C        2.49000        0.06800        0.51600
   O        1.48100        0.69400        0.02300
   C        3.69500        0.18400       -0.32800
   H        3.48500       -0.14600       -1.48100
   H        4.48900       -0.48400        0.10400
   H        4.13200        1.21100       -0.53900
   C        2.04800       -1.96400        0.32400
   H        1.16000       -1.63900       -0.29900
   H        1.81000       -2.78000        1.05300
   H        3.01200       -2.16500       -0.25700
   O       -1.95900        1.48800        0.50800
   H       -2.65800        1.14100        1.10500
   H       -2.10500        1.17700       -0.41000
   O       -1.38400       -1.06700        1.27700
   H       -2.29500       -0.76700        1.22300
   H       -1.46900       -1.50200        2.15500
   O        0.97600        2.05600        2.73700
   H        1.93800        2.33900        2.68000
   H        0.76900        1.45800        3.52000
   O        2.24100       -0.07400        5.61600
   H        1.61700        0.43100        6.16500
   H        3.10200        0.10100        6.01500
   O        1.81800       -2.71600        5.91700
   H        1.20900       -2.74300        6.69400
   H        2.63600       -2.24300        6.28700
  Mg        1.07000       -1.46000        4.37100
  Mg       -0.07700        0.82900        1.35000
$end

