$rem
   JOBTYPE Opt
   EXCHANGE hf
   BASIS 6-31+G(d)
   MAX_SCF_CYCLES 200
   GUI=2
   SOLVENT_METHOD ONSAGER
   pdb_print 2
$end

$opt
CONSTRAINT
stre 2 9 1.5
ENDCONSTRAINT
$end

$solvent
CavityRadius	30
Dielectric     78.39 
$end

$comment
oro_only, minus 1 charge in vaccuum
$end

$molecule
   -1 1
   C       -0.53200       -1.25300       -0.11800
   C        0.00300       -0.03200        0.03300
   N        0.50200        0.38000        1.27400
   C        0.48700       -0.45000        2.38200
   O        0.93000       -0.15500        3.49300
   N       -0.07200       -1.68600        2.19500
   C       -0.58400       -2.16600        1.02700
   O       -1.05300       -3.29700        0.93300
   C        0.01069        0.80270       -1.21328
   O       -1.03034        0.76255       -1.88315
   O        1.05860        1.42655       -1.42384
   H       -0.93600       -1.60600       -1.05900
   H       -0.08800       -2.29800        2.99100
   C        1.08600        1.70800        1.39600
   H        1.23100        1.98200        2.44500
   H        2.06500        1.71500        0.90800
   H        0.42300        2.45400        0.94700
$end

