$comment
TS Frame 1050 converged, trying to find the RPATH now
$end

$molecule
-2 1
C 
O  1 1.264998
C  1 1.501394 2 121.823411
O  3 1.254019 1 124.345134 2 1.501556 0
C  3 1.536444 1 118.299923 2 -172.365717 0
H  5 1.092877 3 113.731164 1 -17.124918 0
H  5 1.099385 3 108.007669 1 102.630658 0
H  5 1.100572 3 108.691242 1 -140.033247 0
C  1 1.580285 2 117.177130 3 -157.946926 0
O  9 1.262284 1 119.525354 2 -76.098365 0
O  9 1.271115 1 113.458710 2 100.356033 0
C  1 2.089295 2 107.741295 3 83.578083 0
H  12 1.092578 1 90.743203 2 78.457485 0
H  12 1.093180 1 98.981771 2 -35.908149 0
H  12 1.100270 1 126.482544 2 -163.171746 0
$end

$rem
jobtype freq
basis 6-31+G(d)
exchange b3lyp
$end


@@@
$molecule
READ
$end

$rem
RPATH_MAX_CYCLES 80
jobtype rpath
basis 6-31+G(d)
exchange b3lyp
pdb_print 2
scf_guess read
$end
