$comment
TS Frame 1050 converged, trying to find the RPATH now
$end

$molecule
-2 1
O 
C  1 1.220245
C  2 1.601709 1 119.513584
O  3 1.339814 2 114.071741 1 0.049812 0
C  3 1.576579 2 106.167845 1 123.125400 0
H  5 1.096996 3 113.587839 2 55.992041 0
H  5 1.100462 3 108.517406 2 -66.414194 0
H  5 1.101719 3 106.961611 2 178.065018 0
C  3 1.577869 2 105.890164 1 -122.825729 0
H  9 1.097209 3 113.588123 2 -56.014808 0
H  9 1.100370 3 108.480083 2 66.336550 0
H  9 1.101830 3 106.986094 2 -178.063114 0
C  2 1.621356 1 117.379637 3 -179.968424 0
O  13 1.259239 2 115.407576 1 -0.070386 0
O  13 1.265553 2 117.312097 1 179.948384 0
$end

$rem
jobtype freq
basis 6-31+G(d)
exchange b3lyp
$end


@@@
$molecule
READ
$end

$rem
RPATH_MAX_CYCLES 80
jobtype rpath
basis 6-31+G(d)
exchange b3lyp
pdb_print 2
scf_guess read
$end
