$comment
Title
$end

$molecule
   -2 1
   C         3.500        -1.217          2.652
   O         4.587        -1.422          2.054
   O         3.267        -1.510          3.887
   C         2.344        -0.610          1.814
   C         1.955        -2.138          0.344
   O         1.194        -0.348          2.371
   C         2.463        -0.100          0.425
   O         1.439         0.483         -0.147
   C         3.838         0.002         -0.108
   H         3.864         0.108         -1.197
   H         4.649        -0.717          0.201
   H         4.216         1.057          0.115
   H         1.074        -2.041         -0.411
   H         1.672        -2.674          1.292
   H         2.942        -2.468         -0.050 
$end


$solvent
CavityRadius    30
Dielectric     78.39
$end

$molecule
READ
$end

$rem
jobtype          FREQ
exchange         b3lyp
basis            6-31+G(d)
pdb_print 2
SOLVENT_METHOD ONSAGER
NBO TRUE
$end

@@@

$molecule
READ
$end

$solvent
CavityRadius    30
Dielectric     78.39
$end

$rem
SOLVENT_METHOD ONSAGER
jobtype          TS
exchange         b3lyp
basis            6-31+G(d)
geom_opt_maxcyc  100
$end

@@@

$solvent
CavityRadius    30
Dielectric     78.39
$end

$molecule
READ
$end

$rem
jobtype          FREQ
exchange         b3lyp
basis            6-31+G(d)
pdb_print 2
NBO TRUE
SOLVENT_METHOD ONSAGER
$end
