$molecule
   -2 1
   C         1.355   0.243   0.054
   O         2.272   0.275  -0.817
   O         1.349   0.869   1.161
   C         0.080  -0.706  -0.225
   C        -0.233  -0.676  -1.787
   O         0.250  -1.961   0.194
   C        -1.149   0.042   0.397
   O        -2.005  -0.481   1.106
   C        -1.356   1.531   0.038
   H        -0.542   1.947  -0.559
   H        -1.428   2.100   0.973
   H        -2.309   1.632  -0.505
   H        -1.086  -1.345  -1.977
   H         0.664  -1.074  -2.271
   H        -0.440   0.321  -2.215
$end


$rem
   EXCHANGE         B3LYP
   BASIS            6-31+G(d)
   PRINT_ORBITALS   true
   MOLDEN_FORMAT    true 
$end 