$molecule
-2  1
C    1.35554    0.24384    0.05485
O    2.27286    0.27594   -0.81703
O    1.34948    0.86917    1.16185
C    0.08028   -0.70682   -0.22526
C   -0.23305   -0.67675   -1.78759
O    0.25010   -1.96139    0.19462
C   -1.14952    0.04215    0.39764
O   -2.00535   -0.48110    1.10685
C   -1.35638    1.53121    0.03887
H   -0.54250    1.94719   -0.55924
H   -1.42829    2.10063    0.97341
H   -2.30959    1.63212   -0.50558
H   -1.08694   -1.34541   -1.97767
H    0.66449   -1.07453   -2.27198
H   -0.44027    0.32127   -2.21502
****
C    1.49350    0.18120   -0.37275
O    1.85084    1.30923    0.07829
O    1.98910   -0.46545   -1.33773
C    0.30748   -0.49700    0.37363
C   -1.25681    0.44808   -1.42492
O    0.56613   -1.31533    1.25406
C   -1.20502   -0.09797    0.04581
O   -2.09542   -1.07992    0.24945
C   -1.46361    1.13938    0.99992
H   -2.48366    1.50237    0.79392
H   -0.73924    1.95759    0.87115
H   -1.42786    0.78455    2.03837
H   -1.05888   -0.37493   -2.12299
H   -0.54186    1.25972   -1.62866
H   -2.28030    0.81272   -1.60269
$end

$solvent
CavityRadius    30
Dielectric     78.39
$end

$rem
jobtype         fsm
fsm_ngrad       3
fsm_nnode       12
fsm_mode     2
fsm_opt_mode 2
method          b3lyp
basis           6-31+G(d)
SOLVENT_METHOD ONSAGER
$end