$rem
JOBTYPE Opt
EXCHANGE HF
BASIS 6-31+G(d)
GUI=2
SOLVENT_METHOD ONSAGER
pdb_print 2
NBO TRUE
$end

$comment
geometry opt on the irc reactant from ts of slide 1030
$end

$solvent
CavityRadius    30
Dielectric     78.39
$end

$molecule
-2 1
C       -0.03300       -0.63000       -0.15100
O        0.02800       -1.55000       -1.11400
C       -1.21300        0.39000       -0.24600
O       -2.23600        0.22300       -0.90900
C       -1.16100        1.62600        0.67500
H       -0.24900        1.66400        1.27600
H       -1.19000        2.52200        0.04400
H       -2.04800        1.62600        1.32900
C        1.34500        0.18500        0.00800
O        2.22800       -0.29100        0.78000
O        1.45900        1.23500       -0.70000
C       -0.43100       -1.30000        1.25400
H        0.46900       -1.79300        1.63300
H       -1.21300       -2.03400        1.01800
H       -0.80400       -0.60700        2.03100
