$comment
Title
$end

$molecule
   -2 1
   C         1.887        -0.045          0.569 
   O         2.441         0.530         -0.396
   O         2.389        -0.135          1.731
   C         0.469        -0.816          0.588
   O        -0.070        -0.786         -1.399
   C         0.491        -1.927          1.187
   O        -0.879        -0.161          0.518
   C        -1.915        -0.795          0.879
   H        -1.081         1.360          0.349
   H        -0.825         1.763         -0.636
   H        -0.492         1.910          1.097
   C        -2.151         1.530          0.543
   H        -0.567        -1.749         -1.512
   H         0.941        -0.774         -1.812
   H        -0.656        -0.010         -1.924
$end

$molecule
READ
$end

$rem
jobtype          TS
exchange         b3lyp
basis            6-31+G(d)
geom_opt_maxcyc  100
$end

@@@

$molecule
READ
$end

$rem
jobtype          FREQ
exchange         b3lyp
basis            6-31+G(d)
pdb_print 2
NBO TRUE
$end
