$molecule
-2 1
C       -0.03200       -0.63000       -0.15000
C       -1.21300        0.38800       -0.24700
C       -1.15500        1.63200        0.66300
C        1.34500        0.18700        0.00600
C       -0.42900       -1.29600        1.25700
O        0.03000       -1.55100       -1.11100
O       -2.24000        0.21500       -0.90300
O        2.22900       -0.28600        0.78000
O        1.45900        1.23400       -0.70500
H       -0.25800        1.65400        1.28700
H       -1.14300        2.52100        0.02100
H       -2.05900        1.66200        1.29300
H       -1.19400       -2.04800        1.01900
H        0.47600       -1.76600        1.65200
H       -0.82800       -0.60400        2.02400
$end

$rem
   EXCHANGE         B3LYP
   BASIS            6-31G(d)
   PRINT_ORBITALS   true
   MOLDEN_FORMAT    true 
$end 