$comment
Title
$end

$molecule
   -2 1            
   C         3.465        -1.200          2.601
   O         4.560        -1.461          2.068
   O         3.273        -1.525          3.830
   C         2.346        -0.585          1.791
   C         1.972        -2.131          0.363
   O         1.201        -0.363          2.379
   C         2.491        -0.138          0.460
   O         1.493         0.513         -0.063
   C         3.826         0.103         -0.195
   H         3.702        -0.082         -1.289
   H         4.565        -0.673          0.179
   H         4.167         1.091          0.224
   H         1.093        -1.972         -0.390
   H         1.667        -2.696          1.288
   H         2.916        -2.475         -0.130
$end


$solvent
CavityRadius    30
Dielectric     78.39
$end

$molecule
READ
$end

$rem
jobtype          FREQ
exchange         b3lyp
basis            6-31+G(d)
pdb_print 2
SOLVENT_METHOD ONSAGER
NBO TRUE
$end

@@@

$molecule
READ
$end

$solvent
CavityRadius    30
Dielectric     78.39
$end

$rem
SOLVENT_METHOD ONSAGER
jobtype          TS
exchange         b3lyp
basis            6-31+G(d)
geom_opt_maxcyc  100
$end

@@@

$solvent
CavityRadius    30
Dielectric     78.39
$end

$molecule
READ
$end

$rem
jobtype          FREQ
exchange         b3lyp
basis            6-31+G(d)
pdb_print 2
NBO TRUE
SOLVENT_METHOD ONSAGER
$end
