$molecule
-2  1
C    1.35512    0.24856    0.05375
O    2.27165    0.28205   -0.81892
O    1.34849    0.87446    1.16033
C    0.08172   -0.70564   -0.22505
C   -0.23234   -0.67952   -1.78702
O    0.25529   -1.95905    0.19710
C   -1.14986    0.04089    0.39636
O   -2.00650   -0.48389    1.10351
C   -1.35768    1.53048    0.03921
H   -0.54876    1.94551   -0.56627
H   -1.41925    2.09973    0.97462
H   -2.31621    1.63320   -0.49557
H   -1.08467   -1.35061   -1.97546
H    0.66593   -1.07579   -2.27135
H   -0.44210    0.31716   -2.21651
****
C    1.49359    0.18061   -0.37340
O    1.85107    1.30908    0.07644
O    1.98900   -0.46709   -1.33776
C    0.30764   -0.49664    0.37390
C   -1.25656    0.44853   -1.42479
O    0.56631   -1.31397    1.25524
C   -1.20491   -0.09795    0.04578
O   -2.09503   -1.08026    0.24898
C   -1.46406    1.13910    1.00013
H   -2.48418    1.50190    0.79401
H   -0.73990    1.95758    0.87164
H   -1.42839    0.78409    2.03853
H   -1.05833   -0.37419   -2.12310
H   -0.54175    1.26041   -1.62810
H   -2.28010    0.81304   -1.60264
$end



$rem
jobtype         fsm
fsm_ngrad       3
fsm_nnode       12
fsm_mode     2
fsm_opt_mode 2
method          b3lyp
basis           6-31+G(d)
$end