$rem
   JOBTYPE Opt
   EXCHANGE HF
   BASIS 6-31+G(d)
   GUI=2
   pdb_print 2
   NBO TRUE
$end

$comment
product
$end

$molecule
   -2 1
   C        3.52200       -1.27800        2.47300
   O        4.59900       -1.30300        1.83000
   O        3.34100       -1.58600        3.73300
   C        2.33500       -0.63100        1.79800
   C        1.98400       -1.87300       -0.50400
   O        1.34900       -0.20700        2.50100
   C        2.12700       -0.48800        0.24600
   O        1.05700        0.26200       -0.13700
   C        3.36100        0.25500       -0.34100
   H        3.14100        0.37800       -1.44100
   H        4.31400       -0.45900       -0.37600
   H        3.75000        1.22500       -0.00600
   H        0.82900       -2.09700       -0.30800
   H        2.53400       -2.74800       -0.01400
   H        2.31800       -1.80800       -1.52600
$end

