$comment
TS Frame 1050 converged, trying to find the RPATH now
$end

$molecule
-2 1
C 
O  1 1.265295
C  1 1.502167 2 121.843495
O  3 1.253198 1 124.414563 2 1.738499 0
C  3 1.535547 1 118.191160 2 -172.686472 0
H  5 1.092649 3 113.497750 1 -15.358334 0
H  5 1.099335 3 108.074457 1 104.411701 0
H  5 1.100482 3 108.783858 1 -138.196818 0
C  1 1.580718 2 117.114856 3 -157.458254 0
O  9 1.262444 1 119.564767 2 -76.575691 0
O  9 1.270910 1 113.410451 2 99.857031 0
C  1 2.087053 2 107.693036 3 84.003550 0
H  12 1.092391 1 91.109593 2 79.981725 0
H  12 1.092532 1 98.395616 2 -34.452839 0
H  12 1.100488 1 126.595460 2 -161.216149 0
$end

$rem
jobtype freq
basis 6-31+G(d)
exchange b3lyp
$end


@@@
$molecule
READ
$end

$rem
RPATH_MAX_CYCLES 120
jobtype rpath
basis 6-31+G(d)
exchange b3lyp
pdb_print 2
scf_guess read
$end
