$comment
Title
$end

$molecule
   -2 1          
   C         3.436        -1.226          2.568
   O         4.568        -1.496          2.090
   O         3.258        -1.538          3.789
   C         2.344        -0.585          1.829
   C         2.003        -2.111          0.368
   O         1.217        -0.392          2.430
   C         2.537        -0.141          0.440
   O         1.530         0.558         -0.013
   C         3.796         0.150         -0.262
   H         3.608         0.157         -1.413
   H         4.569        -0.602          0.069
   H         4.183         1.218         -0.169
   H         1.093        -1.764         -0.267
   H         1.673        -2.752          1.237
   H         2.923        -2.501         -0.142
$end


$solvent
CavityRadius    30
Dielectric     78.39
$end

$molecule
READ
$end

$rem
jobtype          FREQ
exchange         b3lyp
basis            6-31+G(d)
pdb_print 2
SOLVENT_METHOD ONSAGER
NBO TRUE
$end

@@@

$molecule
READ
$end

$solvent
CavityRadius    30
Dielectric     78.39
$end

$rem
SOLVENT_METHOD ONSAGER
jobtype          TS
exchange         b3lyp
basis            6-31+G(d)
geom_opt_maxcyc  100
$end

@@@

$solvent
CavityRadius    30
Dielectric     78.39
$end

$molecule
READ
$end

$rem
jobtype          FREQ
exchange         b3lyp
basis            6-31+G(d)
pdb_print 2
NBO TRUE
SOLVENT_METHOD ONSAGER
$end
