$rem
   JOBTYPE Opt
   EXCHANGE HF
   BASIS 6-31+G(d)
   GUI=2
   pdb_print 2
   NBO TRUE
$end

$comment
reactantstate
$end

$molecule
   -2 1
   C        3.29600       -0.86600        2.39400
   O        4.50600       -1.03900        2.12000
   O        2.92600       -0.95400        3.64500
   C        2.15900       -0.62100        1.29800
   C        1.96600       -1.76700        0.31200
   O        0.94700       -0.47600        2.01100
   C        2.44300        0.67600        0.56700
   O        1.59900        1.61900        0.54700
   C        3.71800        0.81000       -0.11300
   H        4.08300       -0.17800       -0.30800
   H        4.36500        1.05500        0.71800
   H        3.63500        1.42000       -1.07500
   H        1.31600       -1.57200       -0.59100
   H        1.23900       -2.36100        0.98400
   H        2.92900       -2.26400        0.05400
$end

