$comment
Title
$end

$molecule
   -2 1
   C         2.634         0.037         -0.699
   O         2.215         0.710          0.332
   O         3.711        -0.588         -0.776
   C         1.658         0.109         -1.804
   O        -0.179         1.384         -0.053
   C         0.622         0.526         -2.360
   O        -2.044        -2.302         -0.484
   C        -2.848        -1.997         -1.237
   H        -2.728         0.123          1.813
   H        -2.767         1.924          1.965
   H        -2.549         0.901          3.455
   C        -3.021         0.970          2.457
   H        -0.103         0.996         -1.205
   H         0.854         1.123          0.220
   H        -0.813         0.874          0.500
$end

$molecule
READ
$end

$solvent
CavityRadius    30
Dielectric     78.39
$end

$rem
jobtype          FREQ
exchange         b3lyp
basis            6-31+G(d)
pdb_print 2
SOLVENT_METHOD ONSAGER
NBO TRUE
$end


@@@

$molecule
READ
$end

$solvent
CavityRadius    30
Dielectric     78.39
$end

$rem
jobtype          TS
exchange         b3lyp
basis            6-31+G(d)
geom_opt_maxcyc  100
SOLVENT_METHOD ONSAGER
$end

@@@

$molecule
READ
$end

$solvent
CavityRadius    30
Dielectric     78.39
$end

$rem
jobtype          FREQ
exchange         b3lyp
basis            6-31+G(d)
pdb_print 2
SOLVENT_METHOD ONSAGER
NBO TRUE
$end
