$rem
   JOBTYPE sp
   EXCHANGE B3LYP
   BASIS 6-31+G(d)
   GUI=2
   SOLVENT_METHOD ONSAGER
   pdb_print 2
   NBO TRUE
$end

$nbo
nbosum
$end

$solvent
CavityRadius    30
Dielectric     78.39
$end


$molecule
   -2 1
   C         1.493   0.181  -0.372
   O         1.850   1.309   0.078
   O         1.989  -0.465  -1.337
   C         0.307  -0.497   0.373
   C        -1.256   0.448  -1.424
   O         0.566  -1.315   1.254
   C        -1.205  -0.097   0.045
   O        -2.095  -1.079   0.249
   C        -1.463   1.139   0.999
   H        -2.483   1.502   0.793
   H        -0.739   1.957   0.871
   H        -1.427   0.784   2.038
   H        -1.058  -0.374  -2.122
   H        -0.541   1.259  -1.628
   H        -2.280   0.812  -1.602
$end

