$comment
Title
$end

$molecule
   -2 1
   C         3.481        -1.226          2.648        
   O         4.604        -1.388          2.116        
   O         3.308        -1.488          3.891        
   C         2.335        -0.605          1.799        
   C         1.973        -2.138          0.357        
   O         1.206        -0.364          2.418        
   C         2.455        -0.141          0.436        
   O         1.453         0.415         -0.184        
   C         3.843         0.018         -0.124        
   H         3.767        -0.064         -1.181        
   H         4.413        -0.892          0.246        
   H         4.306         0.951          0.292        
   H         1.118        -1.862         -0.391        
   H         1.592        -2.750          1.216        
   H         2.921        -2.490         -0.096        
$end

$solvent
CavityRadius    30
Dielectric     78.39
$end

$molecule
READ
$end

$rem
jobtype          FREQ
exchange         b3lyp
basis            6-31+G(d)
pdb_print 2
SOLVENT_METHOD ONSAGER
NBO TRUE
$end

@@@

$molecule
READ
$end

$solvent
CavityRadius    30
Dielectric     78.39
$end

$rem
SOLVENT_METHOD ONSAGER
jobtype          TS
exchange         b3lyp
basis            6-31+G(d)
geom_opt_maxcyc  100
$end

@@@

$solvent
CavityRadius    30
Dielectric     78.39
$end

$molecule
READ
$end

$rem
jobtype          FREQ
exchange         b3lyp
basis            6-31+G(d)
pdb_print 2
NBO TRUE
SOLVENT_METHOD ONSAGER
$end
